p edge 130 1396 105
e 1 3
e 1 11
e 1 17
e 1 21
e 1 23
e 1 28
e 1 29
e 1 38
e 1 39
e 1 42
e 1 43
e 1 47
e 1 55
e 1 58
e 1 59
e 1 61
e 1 68
e 1 75
e 1 77
e 1 80
e 1 81
e 1 89
e 1 97
e 1 100
e 1 101
e 1 106
e 1 115
e 1 118
e 1 120
e 1 125
e 2 10
e 2 21
e 2 32
e 2 39
e 2 48
e 2 58
e 2 66
e 2 68
e 2 76
e 2 77
e 2 81
e 2 87
e 2 91
e 2 95
e 2 127
e 2 130
e 3 25
e 3 32
e 3 33
e 3 39
e 3 42
e 3 45
e 3 46
e 3 50
e 3 52
e 3 55
e 3 62
e 3 67
e 3 70
e 3 73
e 3 87
e 3 97
e 3 101
e 3 106
e 3 109
e 3 111
e 4 6
e 4 12
e 4 16
e 4 31
e 4 36
e 4 39
e 4 40
e 4 44
e 4 61
e 4 66
e 4 68
e 4 74
e 4 77
e 4 79
e 4 91
e 4 98
e 4 108
e 4 111
e 4 115
e 4 116
e 4 117
e 4 123
e 4 125
e 5 17
e 5 28
e 5 31
e 5 44
e 5 65
e 5 69
e 5 72
e 5 81
e 5 85
e 5 87
e 5 92
e 5 98
e 5 100
e 5 107
e 5 110
e 5 115
e 5 116
e 5 118
e 5 121
e 5 125
e 6 11
e 6 37
e 6 48
e 6 52
e 6 53
e 6 56
e 6 59
e 6 65
e 6 69
e 6 72
e 6 77
e 6 94
e 6 97
e 6 100
e 6 102
e 6 104
e 6 106
e 6 110
e 6 111
e 7 9
e 7 12
e 7 13
e 7 20
e 7 22
e 7 24
e 7 35
e 7 41
e 7 42
e 7 47
e 7 74
e 7 77
e 7 82
e 7 83
e 7 93
e 7 98
e 7 110
e 8 15
e 8 17
e 8 30
e 8 32
e 8 33
e 8 42
e 8 49
e 8 53
e 8 61
e 8 72
e 8 104
e 8 106
e 8 111
e 8 114
e 8 115
e 8 118
e 8 127
e 9 10
e 9 14
e 9 18
e 9 20
e 9 27
e 9 33
e 9 41
e 9 47
e 9 50
e 9 60
e 9 67
e 9 69
e 9 81
e 9 84
e 9 100
e 9 103
e 9 104
e 9 118
e 9 119
e 9 126
e 9 127
e 9 130
e 10 24
e 10 32
e 10 41
e 10 48
e 10 51
e 10 55
e 10 57
e 10 74
e 10 78
e 10 82
e 10 89
e 10 93
e 10 103
e 10 105
e 10 106
e 10 118
e 10 120
e 11 19
e 11 21
e 11 22
e 11 33
e 11 44
e 11 54
e 11 75
e 11 77
e 11 99
e 11 105
e 11 109
e 11 110
e 11 117
e 11 123
e 11 125
e 11 128
e 12 16
e 12 18
e 12 32
e 12 35
e 12 39
e 12 46
e 12 47
e 12 50
e 12 58
e 12 59
e 12 63
e 12 66
e 12 76
e 12 80
e 12 83
e 12 89
e 12 107
e 12 112
e 12 115
e 12 121
e 12 124
e 13 20
e 13 38
e 13 40
e 13 47
e 13 53
e 13 58
e 13 67
e 13 69
e 13 84
e 13 95
e 13 96
e 13 104
e 13 107
e 13 117
e 13 128
e 14 32
e 14 41
e 14 52
e 14 58
e 14 59
e 14 66
e 14 69
e 14 70
e 14 77
e 14 81
e 14 94
e 14 97
e 14 105
e 14 109
e 14 111
e 14 113
e 14 122
e 14 125
e 14 130
e 15 18
e 15 29
e 15 36
e 15 42
e 15 48
e 15 50
e 15 57
e 15 60
e 15 64
e 15 65
e 15 66
e 15 71
e 15 77
e 15 103
e 15 109
e 15 111
e 15 112
e 15 113
e 15 117
e 16 21
e 16 28
e 16 31
e 16 39
e 16 49
e 16 62
e 16 69
e 16 71
e 16 80
e 16 81
e 16 93
e 16 94
e 16 102
e 16 105
e 16 107
e 16 114
e 16 129
e 17 19
e 17 24
e 17 27
e 17 30
e 17 34
e 17 35
e 17 36
e 17 48
e 17 51
e 17 52
e 17 58
e 17 59
e 17 61
e 17 71
e 17 75
e 17 78
e 17 80
e 17 81
e 17 83
e 17 85
e 17 87
e 17 108
e 17 112
e 17 117
e 17 122
e 18 23
e 18 24
e 18 33
e 18 46
e 18 60
e 18 65
e 18 67
e 18 72
e 18 80
e 18 83
e 18 95
e 18 111
e 18 114
e 18 122
e 18 129
e 19 31
e 19 32
e 19 36
e 19 49
e 19 51
e 19 55
e 19 64
e 19 74
e 19 76
e 19 81
e 19 88
e 19 100
e 19 103
e 19 110
e 19 121
e 19 125
e 20 56
e 20 58
e 20 69
e 20 76
e 20 83
e 20 98
e 20 100
e 20 101
e 20 103
e 20 110
e 20 115
e 20 118
e 20 130
e 21 30
e 21 36
e 21 42
e 21 70
e 21 71
e 21 75
e 21 79
e 21 88
e 21 94
e 21 101
e 21 112
e 22 24
e 22 25
e 22 35
e 22 42
e 22 52
e 22 58
e 22 69
e 22 72
e 22 90
e 22 91
e 22 96
e 22 102
e 22 113
e 22 128
e 23 25
e 23 30
e 23 31
e 23 40
e 23 47
e 23 48
e 23 62
e 23 78
e 23 82
e 23 87
e 23 89
e 23 93
e 23 98
e 23 109
e 23 112
e 23 120
e 24 33
e 24 39
e 24 45
e 24 46
e 24 47
e 24 56
e 24 57
e 24 59
e 24 78
e 24 79
e 24 93
e 24 96
e 24 97
e 24 109
e 24 116
e 24 117
e 24 130
e 25 40
e 25 42
e 25 49
e 25 55
e 25 64
e 25 81
e 25 84
e 25 87
e 25 88
e 25 96
e 25 103
e 25 105
e 25 106
e 25 112
e 25 116
e 25 118
e 25 127
e 25 130
e 26 30
e 26 34
e 26 39
e 26 47
e 26 51
e 26 58
e 26 61
e 26 67
e 26 70
e 26 71
e 26 72
e 26 73
e 26 78
e 26 83
e 26 87
e 26 94
e 26 98
e 26 123
e 27 47
e 27 49
e 27 55
e 27 58
e 27 61
e 27 67
e 27 69
e 27 87
e 27 92
e 27 94
e 27 105
e 27 109
e 27 110
e 27 114
e 27 128
e 28 30
e 28 32
e 28 36
e 28 37
e 28 41
e 28 54
e 28 60
e 28 74
e 28 76
e 28 80
e 28 93
e 28 95
e 28 96
e 28 102
e 28 103
e 28 105
e 28 122
e 28 126
e 28 127
e 29 34
e 29 39
e 29 44
e 29 50
e 29 52
e 29 65
e 29 66
e 29 67
e 29 70
e 29 73
e 29 78
e 29 93
e 29 98
e 29 107
e 29 113
e 29 119
e 29 120
e 29 130
e 30 32
e 30 34
e 30 42
e 30 43
e 30 65
e 30 67
e 30 70
e 30 79
e 30 80
e 30 82
e 30 87
e 30 102
e 30 109
e 30 118
e 30 122
e 30 124
e 30 125
e 30 126
e 31 32
e 31 38
e 31 44
e 31 50
e 31 58
e 31 66
e 31 67
e 31 69
e 31 79
e 31 85
e 31 86
e 31 88
e 31 98
e 31 106
e 31 116
e 32 39
e 32 43
e 32 52
e 32 65
e 32 66
e 32 70
e 32 71
e 32 73
e 32 75
e 32 79
e 32 81
e 32 82
e 32 85
e 32 92
e 32 97
e 32 98
e 32 99
e 32 100
e 32 105
e 32 110
e 32 113
e 32 119
e 32 121
e 32 124
e 32 125
e 33 38
e 33 41
e 33 44
e 33 49
e 33 52
e 33 73
e 33 79
e 33 84
e 33 88
e 33 91
e 33 93
e 33 98
e 33 101
e 33 102
e 33 112
e 33 116
e 33 117
e 33 122
e 33 126
e 33 128
e 34 44
e 34 47
e 34 56
e 34 78
e 34 83
e 34 90
e 34 93
e 34 94
e 34 97
e 34 104
e 34 116
e 34 126
e 35 37
e 35 43
e 35 44
e 35 45
e 35 48
e 35 51
e 35 52
e 35 63
e 35 67
e 35 75
e 35 82
e 35 97
e 35 100
e 35 101
e 35 102
e 35 103
e 35 106
e 35 117
e 35 129
e 36 39
e 36 40
e 36 43
e 36 53
e 36 54
e 36 55
e 36 58
e 36 63
e 36 66
e 36 74
e 36 83
e 36 93
e 36 95
e 36 100
e 36 107
e 36 109
e 36 124
e 36 125
e 36 128
e 37 55
e 37 57
e 37 62
e 37 68
e 37 70
e 37 77
e 37 81
e 37 85
e 37 86
e 37 90
e 37 95
e 37 98
e 37 100
e 37 109
e 37 113
e 37 116
e 37 124
e 37 127
e 38 45
e 38 48
e 38 52
e 38 59
e 38 62
e 38 70
e 38 73
e 38 80
e 38 86
e 38 90
e 38 100
e 38 110
e 38 111
e 38 112
e 38 114
e 38 125
e 38 127
e 39 42
e 39 47
e 39 63
e 39 73
e 39 80
e 39 88
e 39 89
e 39 97
e 39 105
e 39 106
e 39 109
e 39 113
e 39 118
e 40 50
e 40 53
e 40 57
e 40 63
e 40 81
e 40 91
e 40 98
e 40 103
e 40 107
e 40 118
e 40 122
e 41 44
e 41 54
e 41 55
e 41 84
e 41 99
e 41 105
e 41 107
e 41 110
e 41 114
e 41 119
e 41 129
e 41 130
e 42 57
e 42 60
e 42 71
e 42 73
e 42 83
e 42 93
e 42 95
e 42 103
e 42 109
e 42 118
e 42 126
e 42 128
e 43 46
e 43 48
e 43 49
e 43 56
e 43 60
e 43 62
e 43 70
e 43 71
e 43 78
e 43 83
e 43 86
e 43 106
e 43 110
e 43 113
e 43 116
e 43 120
e 43 123
e 43 126
e 43 128
e 43 129
e 44 51
e 44 57
e 44 73
e 44 80
e 44 82
e 44 85
e 44 94
e 44 95
e 44 106
e 44 124
e 44 127
e 45 57
e 45 61
e 45 65
e 45 69
e 45 72
e 45 80
e 45 81
e 45 82
e 45 84
e 45 86
e 45 88
e 45 92
e 45 97
e 45 99
e 45 108
e 45 114
e 45 117
e 45 120
e 46 50
e 46 63
e 46 69
e 46 71
e 46 81
e 46 84
e 46 95
e 46 100
e 46 104
e 46 106
e 46 112
e 46 114
e 46 118
e 46 122
e 46 125
e 46 128
e 47 48
e 47 52
e 47 63
e 47 72
e 47 73
e 47 92
e 47 95
e 47 98
e 47 103
e 47 108
e 47 111
e 47 124
e 47 128
e 47 129
e 48 54
e 48 58
e 48 61
e 48 64
e 48 68
e 48 96
e 48 114
e 49 66
e 49 67
e 49 72
e 49 74
e 49 83
e 49 86
e 49 92
e 49 101
e 49 108
e 49 110
e 49 116
e 49 129
e 50 84
e 50 86
e 50 103
e 50 105
e 50 116
e 50 129
e 51 55
e 51 58
e 51 71
e 51 73
e 51 80
e 51 92
e 51 95
e 51 99
e 51 100
e 51 101
e 51 102
e 51 104
e 51 105
e 51 107
e 51 111
e 51 115
e 51 116
e 52 56
e 52 59
e 52 64
e 52 65
e 52 74
e 52 78
e 52 80
e 52 87
e 52 89
e 52 94
e 52 96
e 52 98
e 52 103
e 52 108
e 52 110
e 52 116
e 52 119
e 52 123
e 53 69
e 53 79
e 53 80
e 53 83
e 53 101
e 53 105
e 53 106
e 53 109
e 53 111
e 53 113
e 53 114
e 53 120
e 54 57
e 54 59
e 54 66
e 54 67
e 54 70
e 54 73
e 54 81
e 54 83
e 54 85
e 54 97
e 54 105
e 54 107
e 54 109
e 54 128
e 54 129
e 55 58
e 55 60
e 55 67
e 55 69
e 55 75
e 55 83
e 55 85
e 55 94
e 55 99
e 55 101
e 55 106
e 55 112
e 55 126
e 56 59
e 56 61
e 56 65
e 56 72
e 56 76
e 56 78
e 56 83
e 56 92
e 56 98
e 56 112
e 56 115
e 56 120
e 56 121
e 56 128
e 57 74
e 57 79
e 57 92
e 57 97
e 57 99
e 57 105
e 57 106
e 57 115
e 58 62
e 58 64
e 58 65
e 58 70
e 58 74
e 58 83
e 58 85
e 58 88
e 58 103
e 58 105
e 58 106
e 58 107
e 58 113
e 58 121
e 58 125
e 58 127
e 58 129
e 59 60
e 59 66
e 59 82
e 59 84
e 59 89
e 59 90
e 59 94
e 59 100
e 59 106
e 59 107
e 59 116
e 59 126
e 60 61
e 60 68
e 60 70
e 60 79
e 60 81
e 60 84
e 60 90
e 60 93
e 60 98
e 60 100
e 60 102
e 60 104
e 60 111
e 60 113
e 60 114
e 60 117
e 60 122
e 61 72
e 61 86
e 61 92
e 61 97
e 61 98
e 61 105
e 61 114
e 61 120
e 62 63
e 62 66
e 62 71
e 62 79
e 62 82
e 62 84
e 62 89
e 62 99
e 62 101
e 62 105
e 62 107
e 62 108
e 62 125
e 63 71
e 63 78
e 63 89
e 63 90
e 63 95
e 63 104
e 63 105
e 63 108
e 63 111
e 63 127
e 63 128
e 64 65
e 64 69
e 64 71
e 64 73
e 64 76
e 64 87
e 64 91
e 64 96
e 64 109
e 64 111
e 64 113
e 64 115
e 64 126
e 65 66
e 65 75
e 65 81
e 65 82
e 65 85
e 65 87
e 65 89
e 65 120
e 65 129
e 66 69
e 66 70
e 66 80
e 66 84
e 66 91
e 66 101
e 66 107
e 66 120
e 66 125
e 66 126
e 66 127
e 67 75
e 67 87
e 67 89
e 67 97
e 67 98
e 67 107
e 67 111
e 67 115
e 67 119
e 68 75
e 68 84
e 68 86
e 68 87
e 68 92
e 68 96
e 68 123
e 68 127
e 69 75
e 69 93
e 69 95
e 69 96
e 69 105
e 69 109
e 69 114
e 69 115
e 69 121
e 69 128
e 70 86
e 70 87
e 70 88
e 70 100
e 70 103
e 70 104
e 70 110
e 70 112
e 70 114
e 71 74
e 71 84
e 71 86
e 71 88
e 71 93
e 71 100
e 71 103
e 71 107
e 71 110
e 71 124
e 72 74
e 72 79
e 72 86
e 72 92
e 72 93
e 72 96
e 72 98
e 72 99
e 72 101
e 72 107
e 72 112
e 72 125
e 73 77
e 73 82
e 73 90
e 73 102
e 73 103
e 73 105
e 73 114
e 73 125
e 74 76
e 74 81
e 74 102
e 74 113
e 74 123
e 74 126
e 75 76
e 75 78
e 75 79
e 75 97
e 75 106
e 75 109
e 75 112
e 75 119
e 75 122
e 75 128
e 76 78
e 76 82
e 76 91
e 76 93
e 76 97
e 76 100
e 76 101
e 76 115
e 76 117
e 76 119
e 76 124
e 76 126
e 76 129
e 77 78
e 77 79
e 77 80
e 77 81
e 77 86
e 77 88
e 77 90
e 77 96
e 77 98
e 77 101
e 77 104
e 77 107
e 77 108
e 77 112
e 77 119
e 78 86
e 78 87
e 78 98
e 78 116
e 78 121
e 79 84
e 79 85
e 79 98
e 79 109
e 79 115
e 79 121
e 79 122
e 79 128
e 80 91
e 80 109
e 80 113
e 80 117
e 80 122
e 80 124
e 81 87
e 81 94
e 81 104
e 81 106
e 81 107
e 81 112
e 81 117
e 82 85
e 82 86
e 82 98
e 82 99
e 82 100
e 82 105
e 82 114
e 82 116
e 82 124
e 83 87
e 83 92
e 83 94
e 83 109
e 83 110
e 83 118
e 83 128
e 84 86
e 84 90
e 84 92
e 84 105
e 84 107
e 84 113
e 84 123
e 84 126
e 84 127
e 85 86
e 85 92
e 85 94
e 85 101
e 85 111
e 85 116
e 85 117
e 85 119
e 85 120
e 85 124
e 85 130
e 86 88
e 86 89
e 86 91
e 86 102
e 86 108
e 86 109
e 86 111
e 86 114
e 86 116
e 87 99
e 87 102
e 87 107
e 87 108
e 87 111
e 87 115
e 88 93
e 88 99
e 88 101
e 88 105
e 88 107
e 88 108
e 88 111
e 88 114
e 88 118
e 88 119
e 88 130
e 89 96
e 89 98
e 89 100
e 89 105
e 89 110
e 89 112
e 89 124
e 90 93
e 90 94
e 90 101
e 90 106
e 90 107
e 90 119
e 90 121
e 90 125
e 91 94
e 91 97
e 91 99
e 91 104
e 91 105
e 91 111
e 91 115
e 91 116
e 91 119
e 91 129
e 92 94
e 92 105
e 92 109
e 92 114
e 92 124
e 92 126
e 92 127
e 92 128
e 93 98
e 93 103
e 93 118
e 93 119
e 93 124
e 93 126
e 94 108
e 94 113
e 94 119
e 94 121
e 95 108
e 95 123
e 95 124
e 95 128
e 95 129
e 96 98
e 96 102
e 96 105
e 96 106
e 96 112
e 96 113
e 96 115
e 96 123
e 96 126
e 97 103
e 97 119
e 97 125
e 97 126
e 98 108
e 98 117
e 98 123
e 98 124
e 98 130
e 99 106
e 99 107
e 99 108
e 99 118
e 99 122
e 99 123
e 99 127
e 99 129
e 100 104
e 100 105
e 100 110
e 100 115
e 100 120
e 100 124
e 100 125
e 100 130
e 101 107
e 101 111
e 101 112
e 101 114
e 101 116
e 101 125
e 102 109
e 102 129
e 103 109
e 103 130
e 104 110
e 104 111
e 104 112
e 104 121
e 104 123
e 104 126
e 104 127
e 105 110
e 105 113
e 105 125
e 105 127
e 106 111
e 106 113
e 106 121
e 106 122
e 106 123
e 106 127
e 106 128
e 107 119
e 107 120
e 107 127
e 108 109
e 108 110
e 108 112
e 108 118
e 108 120
e 108 122
e 108 125
e 108 127
e 109 128
e 110 115
e 110 117
e 110 122
e 110 126
e 110 130
e 111 116
e 111 120
e 111 123
e 112 118
e 113 116
e 113 120
e 113 129
e 114 120
e 114 121
e 114 123
e 114 130
e 115 121
e 116 121
e 117 119
e 117 120
e 117 121
e 117 122
e 117 129
e 122 124
e 123 124
e 124 125
e 124 129
e 125 130
e 127 128
e 128 129
